(set-info :smt-lib-version 2.6)
(set-logic UFNIRA)
(set-info :source |
Generated by: Geoff Sutcliffe
Generated on: 2026-03-11
Generator: TPTPWorld
Application: Benchmarking automated theorem provers
Time limit: 120.0

These benchmarks are translations from the TPTP Library (Thousands of
Problems for Theorem Provers), see http://www.cs.miami.edu/~tptp/

The TPTP is maintained by Geoff Sutcliffe, and he contributed this
selection of benchmarks to SMT-LIB.  They were exported from the
v9.2.1 realease of TPTP.
|)
(set-info :category "industrial")
(set-info :status "unknown")
; SZS status Success
(declare-sort $$unsorted 0)

(declare-sort tptp.record 0)
(declare-fun tptp.length (tptp.record) Int)
(declare-fun tptp.next (tptp.record) tptp.record)
(declare-fun tptp.data (tptp.record) Int)
(declare-fun tptp.split1 (tptp.record) tptp.record)
(declare-fun tptp.split2 (tptp.record) tptp.record)
(declare-fun tptp.isrecord (tptp.record) Bool)
(assert (forall ((U tptp.record)) (=> (not (tptp.isrecord U)) (= (tptp.length U) 0))))
(assert (forall ((U tptp.record)) (=> (tptp.isrecord U) (>= (tptp.length U) 1))))
(assert (forall ((U tptp.record)) (=> (tptp.isrecord U) (= (tptp.length U) (+ (tptp.length (tptp.next U)) 1)))))
(assert (forall ((U tptp.record)) (=> (not (tptp.isrecord U)) (not (tptp.isrecord (tptp.split1 U))))))
(assert (forall ((U tptp.record)) (=> (tptp.isrecord U) (tptp.isrecord (tptp.split1 U)))))
(assert (forall ((U tptp.record)) (=> (tptp.isrecord U) (= (tptp.data (tptp.split1 U)) (tptp.data U)))))
(assert (forall ((U tptp.record)) (=> (and (tptp.isrecord U) (not (tptp.isrecord (tptp.next U)))) (not (tptp.isrecord (tptp.next (tptp.split1 U)))))))
(assert (forall ((U tptp.record)) (let ((_let_1 (tptp.next U))) (=> (and (tptp.isrecord U) (tptp.isrecord _let_1)) (= (tptp.next (tptp.split1 U)) (tptp.split1 (tptp.next _let_1)))))))
(assert (forall ((U tptp.record)) (=> (not (tptp.isrecord U)) (not (tptp.isrecord (tptp.split2 U))))))
(assert (forall ((U tptp.record)) (=> (not (tptp.isrecord (tptp.next U))) (not (tptp.isrecord (tptp.split2 U))))))
(assert (forall ((U tptp.record)) (=> (and (tptp.isrecord U) (tptp.isrecord (tptp.next U))) (tptp.isrecord (tptp.split2 U)))))
(assert (forall ((U tptp.record)) (let ((_let_1 (tptp.next U))) (=> (and (tptp.isrecord U) (tptp.isrecord _let_1)) (= (tptp.data (tptp.split2 U)) (tptp.data _let_1))))))
(assert (forall ((U tptp.record)) (let ((_let_1 (tptp.next U))) (=> (and (tptp.isrecord U) (tptp.isrecord _let_1)) (= (tptp.next (tptp.split2 U)) (tptp.split2 (tptp.next _let_1)))))))
(declare-fun tptp.a () tptp.record)
(declare-fun tptp.b () tptp.record)
(assert (let ((_let_1 (tptp.length tptp.b))) (let ((_let_2 (* 2 (tptp.length (tptp.split1 tptp.b))))) (let ((_let_3 (tptp.length tptp.a))) (let ((_let_4 (* 2 (tptp.length (tptp.split1 tptp.a))))) (let ((_let_5 (tptp.next tptp.b))) (not (=> (and (tptp.isrecord tptp.b) (tptp.isrecord _let_5) (= (tptp.next _let_5) tptp.a) (or (= _let_4 (+ _let_3 1)) (= _let_4 _let_3))) (or (= _let_2 (+ _let_1 1)) (= _let_2 _let_1))))))))))
(check-sat)
(exit)
